; Copyright (c) 2026 The RIINA Authors. All rights reserved.
; Auto-generated from 02_FORMAL/coq/Industries/IndustryTransportation.v (22 validations)
; Generated by scripts/generate-full-stack.py
;
; Translation Validation for IndustryTransportation
; Layer 9: Verifies compiler backend preserves formal semantics.
; Each assertion checks source IR ≡ target code for a proven property.

(set-logic QF_LIA)
(set-option :produce-models true)

; IR node representation
(declare-sort IRNode 0)
(declare-sort TargetNode 0)

; asil_to_nat: source semantics (matches Coq)
(declare-fun source_asil_to_nat () Bool)
(declare-fun target_asil_to_nat () Bool)
(assert (= source_asil_to_nat target_asil_to_nat))

; asil_le: source semantics (matches Coq)
(declare-fun source_asil_le () Bool)
(declare-fun target_asil_le () Bool)
(assert (= source_asil_le target_asil_le))

; sil_to_nat: source semantics (matches Coq)
(declare-fun source_sil_to_nat () Bool)
(declare-fun target_sil_to_nat () Bool)
(assert (= source_sil_to_nat target_sil_to_nat))

; sil_le: source semantics (matches Coq)
(declare-fun source_sil_le () Bool)
(declare-fun target_sil_le () Bool)
(assert (= source_sil_le target_sil_le))

; asil_test_coverage_pct: source semantics (matches Coq)
(declare-fun source_asil_test_coverage_pct () Bool)
(declare-fun target_asil_test_coverage_pct () Bool)
(assert (= source_asil_test_coverage_pct target_asil_test_coverage_pct))

; work_products_required: source semantics (matches Coq)
(declare-fun source_work_products_required () Bool)
(declare-fun target_work_products_required () Bool)
(assert (= source_work_products_required target_work_products_required))

; asil_sum: source semantics (matches Coq)
(declare-fun source_asil_sum () Bool)
(declare-fun target_asil_sum () Bool)
(assert (= source_asil_sum target_asil_sum))

; iso26262_full: source semantics (matches Coq)
(declare-fun source_iso26262_full () Bool)
(declare-fun target_iso26262_full () Bool)
(assert (= source_iso26262_full target_iso26262_full))

; tolerable_hazard_rate_per_hour: source semantics (matches Coq)
(declare-fun source_tolerable_hazard_rate_per_hour () Bool)
(declare-fun target_tolerable_hazard_rate_per_hour () Bool)
(assert (= source_tolerable_hazard_rate_per_hour target_tolerable_hazard_rate_per_hour))

; v2x_auth_timeout_ms: source semantics (matches Coq)
(declare-fun source_v2x_auth_timeout_ms () Bool)
(declare-fun target_v2x_auth_timeout_ms () Bool)
(assert (= source_v2x_auth_timeout_ms target_v2x_auth_timeout_ms))

; version_valid: source semantics (matches Coq)
(declare-fun source_version_valid () Bool)
(declare-fun target_version_valid () Bool)
(assert (= source_version_valid target_version_valid))

; iso_26262_compliance: translation preserves property (matches Coq: Theorem)
(declare-fun source_iso_26262_compliance () Bool)
(declare-fun target_iso_26262_compliance () Bool)
(assert (= source_iso_26262_compliance target_iso_26262_compliance))

; iso_21434_cybersecurity: translation preserves property (matches Coq: Theorem)
(declare-fun source_iso_21434_cybersecurity () Bool)
(declare-fun target_iso_21434_cybersecurity () Bool)
(assert (= source_iso_21434_cybersecurity target_iso_21434_cybersecurity))

; unece_r155_compliance: translation preserves property (matches Coq: Theorem)
(declare-fun source_unece_r155_compliance () Bool)
(declare-fun target_unece_r155_compliance () Bool)
(assert (= source_unece_r155_compliance target_unece_r155_compliance))

; en_50128_compliance: translation preserves property (matches Coq: Theorem)
(declare-fun source_en_50128_compliance () Bool)
(declare-fun target_en_50128_compliance () Bool)
(assert (= source_en_50128_compliance target_en_50128_compliance))

; imo_maritime_cyber: translation preserves property (matches Coq: Theorem)
(declare-fun source_imo_maritime_cyber () Bool)
(declare-fun target_imo_maritime_cyber () Bool)
(assert (= source_imo_maritime_cyber target_imo_maritime_cyber))

; asil_d_highest_rigor: translation preserves property (matches Coq: Theorem)
(declare-fun source_asil_d_highest_rigor () Bool)
(declare-fun target_asil_d_highest_rigor () Bool)
(assert (= source_asil_d_highest_rigor target_asil_d_highest_rigor))

; cyber_safety_interface: translation preserves property (matches Coq: Theorem)
(declare-fun source_cyber_safety_interface () Bool)
(declare-fun target_cyber_safety_interface () Bool)
(assert (= source_cyber_safety_interface target_cyber_safety_interface))

; asil_le_refl: translation preserves property (matches Coq: Lemma)
(declare-fun source_asil_le_refl () Bool)
(declare-fun target_asil_le_refl () Bool)
(assert (= source_asil_le_refl target_asil_le_refl))

; asil_le_trans: translation preserves property (matches Coq: Lemma)
(declare-fun source_asil_le_trans () Bool)
(declare-fun target_asil_le_trans () Bool)
(assert (= source_asil_le_trans target_asil_le_trans))

; asil_le_antisym: translation preserves property (matches Coq: Lemma)
(declare-fun source_asil_le_antisym () Bool)
(declare-fun target_asil_le_antisym () Bool)
(assert (= source_asil_le_antisym target_asil_le_antisym))

; sil_le_refl: translation preserves property (matches Coq: Lemma)
(declare-fun source_sil_le_refl () Bool)
(declare-fun target_sil_le_refl () Bool)
(assert (= source_sil_le_refl target_sil_le_refl))

; asil_d_full_coverage: translation preserves property (matches Coq: Theorem)
(declare-fun source_asil_d_full_coverage () Bool)
(declare-fun target_asil_d_full_coverage () Bool)
(assert (= source_asil_d_full_coverage target_asil_d_full_coverage))

; asil_coverage_monotone: translation preserves property (matches Coq: Theorem)
(declare-fun source_asil_coverage_monotone () Bool)
(declare-fun target_asil_coverage_monotone () Bool)
(assert (= source_asil_coverage_monotone target_asil_coverage_monotone))

; work_products_monotone: translation preserves property (matches Coq: Theorem)
(declare-fun source_work_products_monotone () Bool)
(declare-fun target_work_products_monotone () Bool)
(assert (= source_work_products_monotone target_work_products_monotone))

; asil_decomposition_valid: translation preserves property (matches Coq: Theorem)
(declare-fun source_asil_decomposition_valid () Bool)
(declare-fun target_asil_decomposition_valid () Bool)
(assert (= source_asil_decomposition_valid target_asil_decomposition_valid))

; full_requires_hazard_analysis: translation preserves property (matches Coq: Theorem)
(declare-fun source_full_requires_hazard_analysis () Bool)
(declare-fun target_full_requires_hazard_analysis () Bool)
(assert (= source_full_requires_hazard_analysis target_full_requires_hazard_analysis))

; full_requires_software_design: translation preserves property (matches Coq: Theorem)
(declare-fun source_full_requires_software_design () Bool)
(declare-fun target_full_requires_software_design () Bool)
(assert (= source_full_requires_software_design target_full_requires_software_design))

; full_requires_cyber_interface: translation preserves property (matches Coq: Theorem)
(declare-fun source_full_requires_cyber_interface () Bool)
(declare-fun target_full_requires_cyber_interface () Bool)
(assert (= source_full_requires_cyber_interface target_full_requires_cyber_interface))

; sil4_zero_tolerable_hazard: translation preserves property (matches Coq: Theorem)
(declare-fun source_sil4_zero_tolerable_hazard () Bool)
(declare-fun target_sil4_zero_tolerable_hazard () Bool)
(assert (= source_sil4_zero_tolerable_hazard target_sil4_zero_tolerable_hazard))

; hazard_rate_decreasing: translation preserves property (matches Coq: Theorem)
(declare-fun source_hazard_rate_decreasing () Bool)
(declare-fun target_hazard_rate_decreasing () Bool)
(assert (= source_hazard_rate_decreasing target_hazard_rate_decreasing))

; safety_critical_faster_auth: translation preserves property (matches Coq: Theorem)
(declare-fun source_safety_critical_faster_auth () Bool)
(declare-fun target_safety_critical_faster_auth () Bool)
(assert (= source_safety_critical_faster_auth target_safety_critical_faster_auth))

; version_no_downgrade: translation preserves property (matches Coq: Theorem)
(declare-fun source_version_no_downgrade () Bool)
(declare-fun target_version_no_downgrade () Bool)
(assert (= source_version_no_downgrade target_version_no_downgrade))

; Verify all translation validations are satisfiable
(check-sat)
(exit)
